%nprocshared=12
%mem=24GB
#m06l/gen pseudo=read integral=ultrafine temperature=308 scrf=(read)

Title Card Required

0 4
C        2.960467000     -0.532391000      3.147814000
C        2.125086000      0.293728000      3.910244000
C        0.803101000      0.579080000      3.454107000
C        0.430999000      0.066645000      2.151074000
C        2.487973000     -1.052367000      1.926158000
H        0.048138000      1.684150000      5.184486000
H        3.964499000     -0.809475000      3.500341000
H        2.461892000      0.688078000      4.881265000
C       -0.198301000      1.279143000      4.190777000
C       -1.779604000      0.847563000      2.413080000
C       -1.506330000      1.374869000      3.688371000
H       -2.315758000      1.824424000      4.281654000
N       -0.792099000      0.310515000      1.627905000
N        1.251182000     -0.726859000      1.419841000
C        3.151426000     -2.076971000      1.140157000
C       -3.083900000      0.662140000      1.795532000
N        2.606293000     -2.579719000      0.055537000
N       -3.209286000     -0.001884000      0.667239000
Ni      -1.295255000      0.076950000     -0.251715000
C        0.158146000      1.188056000     -1.094878000
C        0.417633000      2.442877000     -0.604134000
C       -1.174337000     -0.664266000     -2.172503000
H       -1.949932000     -1.406207000     -2.415660000
C       -1.356918000      0.791632000     -2.290153000
H       -0.658499000      1.265822000     -3.011841000
C        0.182937000     -1.042933000     -1.928696000
H        0.561611000     -1.998733000     -2.331193000
C        1.076305000      0.186275000     -1.775690000
H        1.435067000      0.562501000     -2.770264000
H       -0.437655000      2.968442000     -0.139463000
C       -5.293724000      0.780827000      1.472173000
H       -5.625722000      1.729741000      1.001609000
H       -6.128646000      0.360499000      2.064670000
C        4.484674000     -3.833369000      0.763383000
H        4.237629000     -4.705538000      1.404166000
H        5.550414000     -3.891153000      0.472137000
C        3.495128000     -3.663282000     -0.426752000
H        2.882134000     -4.580781000     -0.556836000
C       -4.659149000     -0.203116000      0.448622000
H       -4.915255000      0.107386000     -0.584959000
O        4.307005000     -2.629545000      1.567885000
O       -4.209284000      1.099708000      2.397077000
Ni       0.565997000     -2.030640000      0.011873000
Cl      -0.559116000     -3.986086000     -0.263026000
C        4.188854000     -3.373689000     -1.804260000
C        5.085176000     -2.119837000     -1.726530000
H        4.497345000     -1.224210000     -1.436206000
H        5.915202000     -2.235951000     -0.998369000
H        5.544966000     -1.913273000     -2.715683000
C        5.035187000     -4.611046000     -2.182580000
H        4.406088000     -5.524441000     -2.246523000
H        5.511917000     -4.460511000     -3.173598000
H        5.849798000     -4.809202000     -1.454625000
C        3.113243000     -3.166202000     -2.888713000
H        2.530255000     -2.244874000     -2.699668000
H        3.586057000     -3.067252000     -3.888402000
H        2.404981000     -4.020372000     -2.929438000
C       -5.095330000     -1.703481000      0.607572000
C       -4.770403000     -2.233341000      2.020055000
H       -3.679772000     -2.195834000      2.219539000
H       -5.290360000     -1.660385000      2.816825000
H       -5.089965000     -3.292117000      2.115460000
C       -4.356443000     -2.561578000     -0.440622000
H       -4.563100000     -2.202747000     -1.471586000
H       -3.259479000     -2.557864000     -0.281734000
H       -4.699065000     -3.616148000     -0.382231000
C       -6.615527000     -1.794112000      0.343915000
H       -6.875286000     -1.405500000     -0.664163000
H       -6.950175000     -2.851370000      0.392841000
H       -7.211782000     -1.228068000      1.090481000
C        1.665785000      3.205389000     -0.554353000
C        1.676808000      4.439257000      0.153422000
C        2.893088000      2.817363000     -1.172093000
C        2.822711000      5.240831000      0.258349000
H        0.747850000      4.778297000      0.641395000
C        4.041125000      3.605859000     -1.076255000
H        2.949684000      1.884941000     -1.749334000
C        4.025229000      4.826630000     -0.358386000
H        2.769227000      6.184318000      0.820032000
H        4.980698000      3.296918000     -1.560247000
C        5.236003000      6.757298000      0.381752000
H        4.528466000      7.500725000     -0.049072000
H        5.003271000      6.622930000      1.461876000
H        6.268129000      7.142043000      0.280825000
O        5.198079000      5.521770000     -0.324031000
H        1.977494000     -0.026567000     -1.164980000
C       -2.682311000      1.475786000     -2.409311000
C       -3.859047000      0.777542000     -2.774152000
C       -2.755166000      2.887954000     -2.297570000
C       -5.063987000      1.463646000     -3.007474000
H       -3.827041000     -0.314406000     -2.906590000
C       -3.963290000      3.570300000     -2.510218000
H       -1.844742000      3.453370000     -2.044494000
C       -5.126465000      2.861671000     -2.866374000
H       -5.960612000      0.898381000     -3.308919000
H       -3.994130000      4.667199000     -2.409902000
H       -6.071776000      3.397477000     -3.046853000

H C N O Cl 0
def2TZVP
****
Ni 0
LANL2DZ
****

Ni 0
LANL2DZ

Eps=4.5

