%nprocshared=12
%mem=24GB
%chk=Pro_R_E_c1.chk
#opt=(MaxCycles=500) freq=noraman bp86/gen pseudo=read integral=ultrafine temperature=308 scrf=(read)

Title Card Required

0 2
C -2.64900000 1.71900000 -2.67500000
C -1.72900000 2.74800000 -2.90200000
C -0.40700000 2.64700000 -2.40500000
C -0.07900000 1.46100000 -1.66200000
C -2.25100000 0.61600000 -1.91000000
H 0.41900000 4.54000000 -3.11600000
H -3.65900000 1.75400000 -3.08300000
H -2.01800000 3.62800000 -3.48100000
C 0.63000000 3.61700000 -2.57200000
C 2.15000000 2.16600000 -1.38000000
C 1.89600000 3.37700000 -2.04800000
H 2.70500000 4.10100000 -2.16100000
N 1.16500000 1.21800000 -1.18700000
N -0.99900000 0.51900000 -1.38300000
C -3.00200000 -0.60300000 -1.66800000
C 3.39100000 1.68800000 -0.85000000
N -2.49500000 -1.55800000 -0.93700000
N 3.45500000 0.45500000 -0.36500000
Ni 1.67900000 -0.37600000 -0.25900000
C -0.10200000 -0.61400000 1.21300000
C -0.85000000 0.25600000 1.94400000
C 2.01100000 -1.84200000 1.00500000
H 3.06200000 -1.90300000 1.29700000
C 0.95700000 -1.44900000 2.02700000
H 0.45400000 -2.36600000 2.40300000
C 1.51700000 -2.53700000 -0.12300000
H 2.21100000 -2.90200000 -0.88500000
C 0.14100000 -2.99300000 -0.17200000
H -0.30500000 -3.27900000 0.78700000
H -0.63400000 0.24400000 3.02600000
C 5.43800000 1.64700000 0.03600000
H 5.40100000 2.07000000 1.05300000
H 6.44400000 1.77100000 -0.38100000
C -4.38000000 -2.28600000 -2.16100000
H -4.10100000 -2.74200000 -3.12300000
H -5.44700000 -2.44800000 -1.96300000
C -3.43000000 -2.70700000 -1.00600000
H -2.84600000 -3.59600000 -1.29900000
C 4.88000000 0.20400000 -0.02500000
H 4.93500000 -0.27200000 0.96900000
O -4.17500000 -0.83600000 -2.30000000
O 4.52000000 2.43300000 -0.79900000
Ni -0.47800000 -1.20900000 -0.63400000
Cl -0.11200000 -1.85600000 -2.94200000
C -4.15300000 -3.02200000 0.34600000
C -5.08100000 -1.86400000 0.76400000
H -4.52200000 -0.92000000 0.85500000
H -5.90500000 -1.70800000 0.04900000
H -5.53800000 -2.08300000 1.74400000
C -4.97800000 -4.31500000 0.15900000
H -4.33400000 -5.16100000 -0.13700000
H -5.47600000 -4.58700000 1.10400000
H -5.76500000 -4.20300000 -0.60500000
C -3.10000000 -3.25500000 1.44800000
H -2.47500000 -2.36100000 1.59700000
H -3.59700000 -3.49900000 2.40200000
H -2.43900000 -4.10000000 1.19000000
C 5.62900000 -0.71900000 -1.05000000
C 5.67900000 -0.08000000 -2.45400000
H 4.66500000 0.08900000 -2.84900000
H 6.21900000 0.88000000 -2.46400000
H 6.19700000 -0.75600000 -3.15300000
C 4.90900000 -2.07600000 -1.15400000
H 4.81900000 -2.56600000 -0.17000000
H 3.90200000 -1.94900000 -1.57800000
H 5.47100000 -2.75500000 -1.81600000
C 7.06200000 -0.95600000 -0.52100000
H 7.04800000 -1.41600000 0.48100000
H 7.60400000 -1.63800000 -1.19500000
H 7.65000000 -0.02500000 -0.46000000
C -1.90900000 1.24400000 1.62000000
C -3.20900000 1.08000000 2.13200000
C -1.62600000 2.46200000 0.96400000
C -4.20900000 2.04800000 1.95400000
H -3.44800000 0.17200000 2.69300000
C -2.60400000 3.43900000 0.78200000
H -0.60800000 2.65400000 0.62100000
C -3.90900000 3.23500000 1.26400000
H -5.20500000 1.86900000 2.36200000
H -2.37600000 4.38000000 0.27600000
C -6.13100000 4.09300000 1.52600000
H -6.63000000 3.21300000 1.08000000
H -6.14400000 4.00000000 2.62700000
H -6.67000000 5.00300000 1.23300000
O -4.80200000 4.25400000 1.02700000
H -0.10100000 -3.66000000 -1.00300000
C 1.55200000 -0.74800000 3.23600000
C 1.39600000 -1.28900000 4.52400000
C 2.28800000 0.44500000 3.09800000
C 1.96200000 -0.66300000 5.64400000
H 0.82500000 -2.21400000 4.64900000
C 2.85400000 1.07300000 4.21200000
H 2.39700000 0.88200000 2.10100000
C 2.69300000 0.52100000 5.49200000
H 1.82700000 -1.10100000 6.63700000
H 3.41400000 2.00400000 4.08500000
H 3.13200000 1.01400000 6.36400000

H C N O Cl 0
def2SVP
****
Ni 0
LANL2DZ
****

Ni 0
LANL2DZ

Eps=4.5

