%nprocshared=12
%mem=24GB
%chk=Pro_R_E_e.chk
#opt=(MaxCycles=500) freq=noraman bp86/gen pseudo=read integral=ultrafine temperature=308 scrf=(read) scf=xqc

Title Card Required

0 2
C       -1.852389000     -3.233904000      2.124334000
C       -0.875080000     -4.199082000      1.876177000
C        0.364643000     -3.809191000      1.285404000
C        0.508218000     -2.425796000      0.874161000
C       -1.615338000     -1.899502000      1.725834000
H        1.396038000     -5.735809000      1.376912000
H       -2.780240000     -3.481312000      2.659828000
H       -1.022344000     -5.244645000      2.187839000
C        1.484384000     -4.672323000      1.106250000
C        2.756836000     -2.785113000      0.294581000
C        2.690647000     -4.155649000      0.627028000
H        3.584448000     -4.786571000      0.519169000
N        1.676941000     -1.955104000      0.368814000
N       -0.498144000     -1.522110000      1.031340000
C       -2.414854000     -0.761858000      2.157492000
C        3.964962000     -2.083401000     -0.124115000
N       -2.113763000      0.464446000      1.816845000
N        3.972516000     -0.787825000     -0.292837000
Ni       1.965954000     -0.097646000     -0.369156000
C       -0.412803000      0.505919000     -1.795290000
C       -1.766077000      0.656830000     -1.423548000
C        1.709504000     -0.384506000     -2.325858000
H        2.487882000     -1.050601000     -2.733621000
C        0.232398000     -0.723584000     -2.439471000
H       -0.088852000     -0.779282000     -3.514193000
C        1.871275000      1.012548000     -2.132240000
H        2.796527000      1.561722000     -2.371060000
C        0.499861000      1.676088000     -2.251066000
H        0.283997000      1.761477000     -3.352710000
H       -2.105402000      1.706671000     -1.335485000
C        6.097293000     -1.758910000     -0.751068000
H        6.447180000     -2.021278000     -1.769215000
H        6.955092000     -1.824978000     -0.051853000
C       -3.935023000      0.386894000      3.336420000
H       -4.048077000      0.489781000      4.431811000
H       -4.935014000      0.460525000      2.857986000
C       -2.890672000      1.355652000      2.715109000
H       -2.178980000      1.691023000      3.507521000
C        5.337007000     -0.394001000     -0.689723000
H        5.290192000      0.063270000     -1.704400000
O       -3.404902000     -0.942425000      3.063375000
O        5.116211000     -2.757542000     -0.340390000
Ni      -0.614839000      0.405689000      0.314327000
Cl       1.391077000      1.238736000      1.536031000
C       -3.470685000      2.654808000      2.083642000
C       -4.478683000      2.343478000      0.960555000
H       -4.026473000      1.692640000      0.187414000
H       -5.389976000      1.833652000      1.337677000
H       -4.810544000      3.282883000      0.471173000
C       -4.169305000      3.458006000      3.205857000
H       -3.469292000      3.686922000      4.037542000
H       -4.545998000      4.423672000      2.808792000
H       -5.040642000      2.915197000      3.630184000
C       -2.302799000      3.489599000      1.521467000
H       -1.768426000      2.952441000      0.712036000
H       -2.675083000      4.447730000      1.103310000
H       -1.560194000      3.727776000      2.311323000
C        5.963819000      0.677236000      0.265228000
C        5.923766000      0.184672000      1.725995000
H        4.876938000      0.007313000      2.048279000
H        6.494470000     -0.757443000      1.870913000
H        6.369164000      0.943227000      2.402765000
C        5.153512000      1.984885000      0.141917000
H        5.151218000      2.358745000     -0.904449000
H        4.101238000      1.837564000      0.459437000
H        5.600639000      2.776116000      0.779886000
C        7.420722000      0.940893000     -0.175576000
H        7.468743000      1.282311000     -1.231943000
H        7.874064000      1.734595000      0.454108000
H        8.062999000      0.040034000     -0.078237000
C       -2.884604000     -0.295831000     -1.643884000
C       -2.802893000     -1.702358000     -1.505946000
C       -4.138419000      0.228540000     -2.065764000
C       -3.891865000     -2.546215000     -1.784781000
H       -1.868315000     -2.159416000     -1.153949000
C       -5.232212000     -0.594892000     -2.347720000
H       -4.247733000      1.317496000     -2.195799000
C       -5.121705000     -1.998337000     -2.212290000
H       -3.770871000     -3.631036000     -1.655640000
H       -6.191734000     -0.171095000     -2.682000000
C       -6.176310000     -4.141979000     -2.391392000
H       -5.410637000     -4.580991000     -3.069841000
H       -5.956359000     -4.462279000     -1.348146000
H       -7.173624000     -4.522781000     -2.681133000
O       -6.237335000     -2.725914000     -2.508488000
H       -0.037014000     -1.692529000     -1.978775000
C        0.290104000      3.082056000     -1.718567000
C       -0.721110000      3.890607000     -2.292131000
C        1.117393000      3.655220000     -0.729591000
C       -0.910264000      5.221689000     -1.883291000
H       -1.354043000      3.475069000     -3.094542000
C        0.936975000      4.990319000     -0.324855000
H        1.898289000      3.036272000     -0.266022000
C       -0.077035000      5.778756000     -0.896353000
H       -1.701409000      5.831149000     -2.349293000
H        1.598384000      5.417324000      0.446286000
H       -0.213539000      6.825351000     -0.579884000

H C N O Cl 0
def2SVP
****
Ni 0
LANL2DZ
****

Ni 0
LANL2DZ

Eps=4.5

