%nprocshared=12
%mem=24GB
#m06l/gen pseudo=read integral=ultrafine temperature=308 scrf=(read)

Title Card Required

0 2
C        1.328228000      0.326699000      3.808223000
C        0.171117000      0.945629000      4.275902000
C       -0.984340000      0.997831000      3.440845000
C       -0.861182000      0.484194000      2.099151000
C        1.356995000     -0.172430000      2.482618000
H       -2.388631000      1.904143000      4.857838000
H        2.208771000      0.191830000      4.452155000
H        0.118944000      1.342301000      5.301462000
C       -2.265018000      1.479982000      3.849748000
C       -3.153487000      0.772406000      1.712607000
C       -3.350771000      1.358876000      2.986559000
H       -4.359914000      1.678946000      3.283591000
N       -1.928642000      0.394243000      1.255641000
N        0.321539000      0.001580000      1.617443000
C        2.409372000     -1.052006000      1.963896000
C       -4.209097000      0.428476000      0.767330000
N        2.348411000     -1.619482000      0.793786000
N       -3.951818000     -0.336289000     -0.259108000
Ni      -1.850502000     -0.579841000     -0.463355000
C        0.612590000      0.935187000     -1.595407000
C        1.719996000      1.732419000     -1.813257000
C       -1.718316000      0.419264000     -2.248988000
H       -2.738639000      0.631835000     -2.606017000
C       -0.715024000      1.547130000     -2.105291000
H       -0.520055000      1.922086000     -3.144768000
C       -1.119792000     -0.845666000     -2.372884000
H       -1.633399000     -1.717513000     -2.809546000
C        0.379484000     -0.841892000     -2.222625000
H        0.955844000     -0.662914000     -3.152214000
H        1.506292000      2.666361000     -2.376923000
C       -6.229493000      0.350260000     -0.203232000
H       -6.580963000      1.221631000     -0.791059000
H       -7.110153000     -0.195091000      0.190385000
C        4.265227000     -2.298246000      2.021992000
H        4.567263000     -3.138009000      2.674329000
H        5.166446000     -1.725606000      1.712048000
C        3.368525000     -2.707466000      0.826757000
H        2.800352000     -3.628145000      1.105445000
C       -5.218492000     -0.549653000     -0.984877000
H       -5.096413000     -0.172722000     -2.025494000
O        3.415074000     -1.406540000      2.803548000
O       -5.476295000      0.860027000      0.939851000
Ni       0.563371000     -0.519370000     -0.227935000
Cl      -1.168811000     -2.736981000      0.256043000
C        4.115293000     -3.060754000     -0.493101000
C        4.839451000     -1.845995000     -1.102511000
H        4.129537000     -1.027455000     -1.335497000
H        5.615115000     -1.433561000     -0.424766000
H        5.348772000     -2.142171000     -2.043585000
C        5.143988000     -4.169582000     -0.161385000
H        4.657357000     -5.049861000      0.310963000
H        5.640400000     -4.519586000     -1.090431000
H        5.943180000     -3.810661000      0.521208000
C        3.102063000     -3.620685000     -1.512994000
H        2.355120000     -2.855780000     -1.800629000
H        3.624350000     -3.946194000     -2.437090000
H        2.552657000     -4.494691000     -1.104224000
C       -5.606574000     -2.063755000     -1.096429000
C       -5.743779000     -2.701920000      0.301664000
H       -4.786537000     -2.646097000      0.859581000
H       -6.534044000     -2.216652000      0.913369000
H       -6.016817000     -3.773677000      0.207626000
C       -4.504460000     -2.799898000     -1.887976000
H       -4.369900000     -2.353272000     -2.896963000
H       -3.531963000     -2.762429000     -1.354157000
H       -4.780344000     -3.866394000     -2.028150000
C       -6.942267000     -2.166724000     -1.865868000
H       -6.866039000     -1.703532000     -2.873148000
H       -7.221715000     -3.231710000     -2.006564000
H       -7.781524000     -1.676904000     -1.327670000
C        3.130418000      1.639554000     -1.403296000
C        4.168481000      1.952757000     -2.317547000
C        3.514298000      1.400818000     -0.057323000
C        5.519731000      1.984400000     -1.933458000
H        3.909537000      2.176667000     -3.365853000
C        4.851699000      1.445243000      0.347782000
H        2.725950000      1.227961000      0.687970000
C        5.873203000      1.723170000     -0.589888000
H        6.287107000      2.219096000     -2.684965000
H        5.133716000      1.277614000      1.399096000
C        8.214686000      2.029670000     -1.003130000
H        8.277919000      1.294218000     -1.836506000
H        8.113621000      3.051304000     -1.433695000
H        9.146860000      1.980572000     -0.409337000
O        7.151978000      1.725596000     -0.107493000
H        0.763056000     -1.809098000     -1.800025000
C       -1.250698000      2.763535000     -1.343091000
C       -2.302649000      3.513710000     -1.919038000
C       -0.743208000      3.182867000     -0.096067000
C       -2.841008000      4.635623000     -1.265645000
H       -2.701856000      3.219099000     -2.904656000
C       -1.277868000      4.306597000      0.561443000
H        0.092364000      2.627194000      0.353386000
C       -2.330637000      5.036988000     -0.017201000
H       -3.657294000      5.205423000     -1.738916000
H       -0.862170000      4.615773000      1.534269000
H       -2.745270000      5.919546000      0.495877000

H C N O Cl 0
def2TZVP
****
Ni 0
LANL2DZ
****

Ni 0
LANL2DZ

Eps=4.5

