%nprocshared=12
%mem=24GB
#m06l/gen pseudo=read integral=ultrafine temperature=308 scrf=(read)

Title Card Required

0 2
C        2.424066000     -1.144211000      3.256703000
C        1.493516000     -0.532308000      4.108411000
C        0.226844000     -0.121197000      3.611059000
C       -0.031600000     -0.334329000      2.202336000
C        2.096144000     -1.307374000      1.898680000
H       -0.652762000      0.635482000      5.471429000
H        3.401780000     -1.485476000      3.624661000
H        1.728631000     -0.378855000      5.172907000
C       -0.824217000      0.449674000      4.400328000
C       -2.262302000      0.425580000      2.452673000
C       -2.066778000      0.709453000      3.821894000
H       -2.908064000      1.091290000      4.418710000
N       -1.234357000     -0.026597000      1.649421000
N        0.896622000     -0.896037000      1.396625000
C        2.941602000     -1.949135000      0.893234000
C       -3.501111000      0.425878000      1.726215000
N        2.700965000     -1.853516000     -0.384998000
N       -3.529754000     -0.011247000      0.474029000
Ni      -1.660500000     -0.145463000     -0.229056000
C        0.115561000      0.517142000     -0.703688000
C        0.581784000      1.774765000     -0.463570000
C       -2.030110000     -0.381837000     -2.223043000
H       -3.130180000     -0.394600000     -2.254697000
C       -1.301921000      0.834630000     -2.450773000
H       -0.334683000      0.731040000     -2.963645000
C       -1.328394000     -1.639551000     -2.168881000
H       -1.914132000     -2.538413000     -1.920748000
C        0.058920000     -1.803986000     -2.424415000
H        0.592240000     -1.043215000     -3.018872000
H       -0.145482000      2.582837000     -0.693634000
C       -5.629232000      0.777331000      1.157973000
H       -5.758732000      1.817686000      0.790821000
H       -6.593775000      0.407700000      1.551973000
C        4.482774000     -3.367414000      0.087817000
H        4.373186000     -4.463474000      0.202984000
H        5.561260000     -3.119073000      0.020645000
C        3.624519000     -2.776525000     -1.076830000
H        2.995384000     -3.578337000     -1.526575000
C       -4.960612000     -0.143187000      0.104927000
H       -5.127797000      0.257173000     -0.918929000
O        3.958204000     -2.741332000      1.295845000
O       -4.676474000      0.809636000      2.264367000
Ni       0.516665000     -1.346668000     -0.495759000
Cl       0.128757000     -3.626351000      0.100660000
C        4.454996000     -2.142355000     -2.241886000
C        5.378778000     -1.013386000     -1.740528000
H        4.795646000     -0.192382000     -1.277200000
H        6.123688000     -1.369803000     -0.998181000
H        5.948689000     -0.580787000     -2.589290000
C        5.300175000     -3.266250000     -2.884999000
H        4.657498000     -4.094213000     -3.253356000
H        5.872268000     -2.871800000     -3.750678000
H        6.036932000     -3.697727000     -2.174426000
C        3.490874000     -1.570532000     -3.301046000
H        2.880882000     -0.746414000     -2.880310000
H        4.060418000     -1.170930000     -4.166353000
H        2.799713000     -2.351685000     -3.681106000
C       -5.485829000     -1.626898000      0.116266000
C       -5.385286000     -2.250653000      1.525403000
H       -4.334204000     -2.281525000      1.879806000
H       -5.990632000     -1.703534000      2.277329000
H       -5.756052000     -3.296552000      1.502930000
C       -4.655700000     -2.478252000     -0.864384000
H       -4.703839000     -2.075217000     -1.898617000
H       -3.594297000     -2.523405000     -0.548844000
H       -5.044458000     -3.517282000     -0.895267000
C       -6.958016000     -1.615084000     -0.354629000
H       -7.055245000     -1.172881000     -1.369344000
H       -7.352443000     -2.651370000     -0.401053000
H       -7.619731000     -1.044428000      0.330452000
C        1.858521000      2.303098000      0.023689000
C        1.950741000      3.685086000      0.334916000
C        3.031084000      1.519707000      0.201501000
C        3.132691000      4.264216000      0.822406000
H        1.063785000      4.325345000      0.195337000
C        4.214945000      2.082998000      0.680611000
H        2.999306000      0.454873000     -0.067913000
C        4.281135000      3.460753000      1.004570000
H        3.149495000      5.338655000      1.054249000
H        5.121970000      1.472381000      0.811399000
C        5.606551000      5.292379000      1.798607000
H        5.428968000      5.945774000      0.915127000
H        4.905830000      5.588070000      2.611290000
H        6.645811000      5.435584000      2.149329000
O        5.481156000      3.913462000      1.468966000
H        0.436631000     -2.833478000     -2.516891000
C       -1.885078000      2.174674000     -2.578791000
C       -3.192789000      2.510198000     -2.134492000
C       -1.109332000      3.204055000     -3.179365000
C       -3.707099000      3.801956000     -2.309842000
H       -3.805235000      1.746101000     -1.634466000
C       -1.622535000      4.500001000     -3.347389000
H       -0.090585000      2.969773000     -3.529240000
C       -2.926113000      4.806181000     -2.917128000
H       -4.727343000      4.033260000     -1.963755000
H       -1.000297000      5.275822000     -3.821512000
H       -3.331975000      5.821569000     -3.049060000

H C N O Cl 0
def2TZVP
****
Ni 0
LANL2DZ
****

Ni 0
LANL2DZ

Eps=4.5

