%nprocshared=12
%mem=24GB
#m06l/gen pseudo=read integral=ultrafine temperature=308 scrf=(read)

Title Card Required

0 2
C        2.441134000     -2.119250000      3.031227000
C        1.450112000     -1.845763000      3.979620000
C        0.199055000     -1.313580000      3.570203000
C        0.008500000     -1.047513000      2.157080000
C        2.183025000     -1.836905000      1.677922000
H       -0.759309000     -1.236895000      5.538306000
H        3.415677000     -2.537582000      3.318589000
H        1.624155000     -2.047564000      5.047779000
C       -0.890447000     -1.051703000      4.461588000
C       -2.243363000     -0.422646000      2.562312000
C       -2.115290000     -0.626036000      3.950887000
H       -2.993026000     -0.484606000      4.598078000
N       -1.174635000     -0.547899000      1.694833000
N        0.989903000     -1.322928000      1.260010000
C        3.139055000     -2.114159000      0.601376000
C       -3.477152000     -0.195460000      1.853813000
N        3.105274000     -1.538345000     -0.561447000
N       -3.511009000     -0.225730000      0.534439000
Ni      -1.567470000      0.068118000     -0.114759000
C        0.242796000      0.642327000     -0.172990000
C        0.628061000      1.849419000      0.301821000
C       -1.799247000      0.000619000     -2.172811000
H       -2.779627000     -0.483380000     -2.302550000
C       -1.767153000      1.386041000     -1.920789000
H       -0.791228000      1.893153000     -1.930274000
C       -0.657334000     -0.870586000     -2.470685000
H       -0.909498000     -1.934786000     -2.602573000
C        0.676746000     -0.503512000     -2.705633000
H        0.973324000      0.551902000     -2.811269000
H       -0.212461000      2.520733000      0.584017000
C       -5.605586000      0.328243000      1.446498000
H       -5.728606000      1.431979000      1.422150000
H       -6.570287000     -0.140311000      1.715701000
C        4.741275000     -3.278320000     -0.454349000
H        4.624200000     -4.336111000     -0.759520000
H        5.816826000     -3.070989000     -0.278805000
C        4.056627000     -2.268295000     -1.428781000
H        3.431506000     -2.824343000     -2.165711000
C       -4.946635000     -0.220549000      0.156117000
H       -5.103194000      0.481444000     -0.688432000
O        4.041294000     -3.102775000      0.810488000
O       -4.644625000      0.009552000      2.499566000
Ni       0.749810000     -1.073056000     -0.709381000
Cl       0.637056000     -3.409097000     -1.104199000
C        5.047627000     -1.376559000     -2.243733000
C        5.976252000     -0.566074000     -1.316657000
H        5.390137000      0.062705000     -0.617677000
H        6.645802000     -1.213817000     -0.712968000
H        6.626516000      0.106453000     -1.914074000
C        5.892102000     -2.306701000     -3.145185000
H        5.247045000     -2.906458000     -3.822245000
H        6.583004000     -1.710041000     -3.776975000
H        6.514236000     -3.012187000     -2.554277000
C        4.245254000     -0.407204000     -3.135691000
H        3.621063000      0.276770000     -2.527368000
H        4.931881000      0.209053000     -3.753503000
H        3.575385000     -0.960225000     -3.827317000
C       -5.482392000     -1.635164000     -0.284165000
C       -5.372843000     -2.664351000      0.862276000
H       -4.318029000     -2.813007000      1.173158000
H       -5.959568000     -2.369161000      1.756556000
H       -5.759314000     -3.649064000      0.525850000
C       -4.676189000     -2.153604000     -1.492178000
H       -4.753704000     -1.463603000     -2.359411000
H       -3.605888000     -2.284577000     -1.236105000
H       -5.068437000     -3.138452000     -1.821130000
C       -6.960072000     -1.473954000     -0.708825000
H       -7.066195000     -0.736932000     -1.533275000
H       -7.362502000     -2.443153000     -1.070174000
H       -7.609604000     -1.142689000      0.128342000
C        1.941750000      2.477149000      0.518780000
C        1.986463000      3.816007000      0.981760000
C        3.183883000      1.818984000      0.310084000
C        3.196638000      4.485182000      1.230312000
H        1.039163000      4.353575000      1.156125000
C        4.393572000      2.474004000      0.554469000
H        3.184746000      0.774215000     -0.042425000
C        4.418910000      3.812234000      1.016440000
H        3.173865000      5.523829000      1.589867000
H        5.357550000      1.966423000      0.395698000
C        5.737353000      5.696632000      1.687022000
H        5.277210000      6.411797000      0.968405000
H        5.248867000      5.821900000      2.679640000
H        6.814649000      5.928504000      1.784802000
O        5.655797000      4.354682000      1.223058000
H        1.355218000     -1.257098000     -3.132379000
C       -2.925279000      2.296485000     -1.929374000
C       -4.171972000      1.959920000     -2.521218000
C       -2.780258000      3.603878000     -1.391141000
C       -5.232259000      2.880206000     -2.545695000
H       -4.298058000      0.979410000     -3.006048000
C       -3.843034000      4.518505000     -1.406863000
H       -1.812457000      3.896868000     -0.953019000
C       -5.078435000      4.159987000     -1.980191000
H       -6.184405000      2.600101000     -3.024240000
H       -3.705093000      5.523422000     -0.976861000
H       -5.910955000      4.880742000     -2.002818000

H C N O Cl 0
def2TZVP
****
Ni 0
LANL2DZ
****

Ni 0
LANL2DZ

Eps=4.5

