%nprocshared=12
%mem=24GB
%chk=Pro_R_E.chk
#opt=(MaxCycles=500) freq=noraman bp86/gen pseudo=read integral=ultrafine temperature=308 scrf=(read)

Title Card Required

0 2
C        2.456941000     -2.073858000      3.050606000
C        1.465158000     -1.789035000      3.996558000
C        0.213266000     -1.266938000      3.579183000
C        0.021765000     -1.021131000      2.161882000
C        2.199618000     -1.811705000      1.694663000
H       -0.741847000     -1.167407000      5.550995000
H        3.434050000     -2.487272000      3.344375000
H        1.640092000     -1.975304000      5.069048000
C       -0.876691000     -0.997293000      4.470569000
C       -2.236540000     -0.400989000      2.565110000
C       -2.104544000     -0.584604000      3.957378000
H       -2.983152000     -0.438151000      4.605281000
N       -1.166711000     -0.532709000      1.694200000
N        1.002057000     -1.303521000      1.267399000
C        3.162666000     -2.109078000      0.632800000
C       -3.473196000     -0.190679000      1.852828000
N        3.158254000     -1.556014000     -0.537036000
N       -3.507519000     -0.238646000      0.536048000
Ni      -1.565973000      0.059851000     -0.119162000
C        0.237199000      0.636063000     -0.185569000
C        0.610618000      1.858477000      0.271257000
C       -1.788343000     -0.043687000     -2.177924000
H       -2.761888000     -0.545975000     -2.303664000
C       -1.781390000      1.344987000     -1.939640000
H       -0.812628000      1.869958000     -1.952352000
C       -0.630586000     -0.898667000     -2.467957000
H       -0.866275000     -1.968021000     -2.597993000
C        0.705609000     -0.515115000     -2.701512000
H        0.990285000      0.544433000     -2.807815000
H       -0.242831000      2.517323000      0.549914000
C       -5.607537000      0.312854000      1.436780000
H       -5.737318000      1.416666000      1.397021000
H       -6.570708000     -0.160073000      1.709554000
C        4.774042000     -3.316491000     -0.360306000
H        4.654334000     -4.380688000     -0.645468000
H        5.848361000     -3.111914000     -0.166483000
C        4.118496000     -2.321693000     -1.370202000
H        3.497058000     -2.885060000     -2.106083000
C       -4.943409000     -0.248740000      0.155956000
H       -5.103922000      0.441270000     -0.700869000
O        4.047033000     -3.107735000      0.884364000
O       -4.645849000      0.015338000      2.497365000
Ni       0.758364000     -1.078522000     -0.704498000
Cl       0.650905000     -3.418600000     -1.067180000
C        5.144402000     -1.471986000     -2.183114000
C        6.063598000     -0.655920000     -1.251713000
H        5.469666000     -0.002327000     -0.581233000
H        6.707489000     -1.303026000     -0.616291000
H        6.740009000     -0.007767000     -1.849833000
C        5.992526000     -2.441319000     -3.039693000
H        5.351094000     -3.046119000     -3.718631000
H        6.711380000     -1.873176000     -3.669263000
H        6.586168000     -3.143767000     -2.414593000
C        4.384226000     -0.511567000     -3.121403000
H        3.758667000      0.201179000     -2.546982000
H        5.099399000      0.075245000     -3.738321000
H        3.721299000     -1.071563000     -3.816145000
C       -5.468184000     -1.674359000     -0.266507000
C       -5.354971000     -2.688908000      0.893640000
H       -4.298493000     -2.825901000      1.209551000
H       -5.947643000     -2.386597000      1.783287000
H       -5.733933000     -3.681340000      0.566100000
C       -4.653135000     -2.202438000     -1.465495000
H       -4.731674000     -1.522666000     -2.342192000
H       -3.581609000     -2.322752000     -1.201757000
H       -5.038184000     -3.195414000     -1.783569000
C       -6.945740000     -1.528840000     -0.697946000
H       -7.053759000     -0.802342000     -1.533242000
H       -7.340923000     -2.506819000     -1.048409000
H       -7.600489000     -1.190882000      0.134059000
C        1.907241000      2.530854000      0.475308000
C        1.893781000      3.877836000      0.920477000
C        3.179823000      1.924430000      0.273153000
C        3.074540000      4.605282000      1.157894000
H        0.922340000      4.375938000      1.089883000
C        4.359464000      2.640168000      0.506642000
H        3.229690000      0.874668000     -0.063050000
C        4.323566000      3.983920000      0.949544000
H        3.006759000      5.647555000      1.504030000
H        5.347562000      2.176337000      0.353335000
C        5.566821000      5.937118000      1.591070000
H        5.072892000      6.621552000      0.863748000
H        5.076442000      6.054936000      2.585019000
H        6.635225000      6.216666000      1.681064000
O        5.542608000      4.582797000      1.144931000
H        1.399654000     -1.262345000     -3.119475000
C       -2.956814000      2.234456000     -1.962833000
C       -4.190966000      1.873640000     -2.567042000
C       -2.841159000      3.546702000     -1.426226000
C       -5.267914000      2.775738000     -2.605932000
H       -4.294234000      0.887277000     -3.050430000
C       -3.920230000      4.442543000     -1.456207000
H       -1.882249000      3.858335000     -0.977519000
C       -5.143304000      4.060103000     -2.042643000
H       -6.211277000      2.476880000     -3.094735000
H       -3.804855000      5.452708000     -1.026773000
H       -5.989553000      4.766924000     -2.076738000

H C N O Cl 0
def2SVP
****
Ni 0
LANL2DZ
****

Ni 0
LANL2DZ

Eps=4.5

