%nprocshared=12
%mem=24GB
#m06l/gen pseudo=read integral=ultrafine temperature=308 scrf=(read)

Title Card Required

0 4
C        2.464734000     -1.122015000      3.265032000
C        1.527412000     -0.528225000      4.120724000
C        0.252601000     -0.138728000      3.622056000
C       -0.008275000     -0.353415000      2.211418000
C        2.138462000     -1.287929000      1.906103000
H       -0.634616000      0.618372000      5.475582000
H        3.440393000     -1.468228000      3.634502000
H        1.756269000     -0.384906000      5.187974000
C       -0.805019000      0.416101000      4.407071000
C       -2.241436000      0.365833000      2.460446000
C       -2.055840000      0.655061000      3.827095000
H       -2.898519000      1.036817000      4.421707000
N       -1.216255000     -0.079887000      1.663385000
N        0.936531000     -0.883094000      1.396961000
C        2.965104000     -1.962461000      0.912356000
C       -3.502137000      0.398069000      1.746079000
N        2.671908000     -1.936937000     -0.360873000
N       -3.599788000     -0.020209000      0.499696000
Ni      -1.642204000     -0.140562000     -0.306126000
C        0.167607000      0.549618000     -0.804218000
C        0.606822000      1.815141000     -0.536799000
C       -2.022537000     -0.425112000     -2.415700000
H       -3.122358000     -0.401036000     -2.442324000
C       -1.255656000      0.799828000     -2.464969000
H       -0.302219000      0.726306000     -3.010254000
C       -1.346000000     -1.663447000     -2.392532000
H       -1.947401000     -2.578260000     -2.263181000
C        0.083570000     -1.792957000     -2.434737000
H        0.646189000     -1.037252000     -3.010825000
H       -0.127648000      2.623371000     -0.739668000
C       -5.660417000      0.788843000      1.311644000
H       -5.835052000      1.838227000      0.993199000
H       -6.589500000      0.387026000      1.757393000
C        4.437042000     -3.457191000      0.122640000
H        4.206589000     -4.526709000      0.301526000
H        5.533324000     -3.338551000      0.019618000
C        3.612676000     -2.843449000     -1.053306000
H        3.006377000     -3.635906000     -1.545627000
C       -5.045668000     -0.083814000      0.184117000
H       -5.237675000      0.379843000     -0.808560000
O        4.017478000     -2.712770000      1.304910000
O       -4.636688000      0.804722000      2.352044000
Ni       0.580696000     -1.307073000     -0.501392000
Cl      -0.038606000     -3.559295000      0.122247000
C        4.477384000     -2.172199000     -2.175461000
C        5.415622000     -1.089431000     -1.604060000
H        4.842206000     -0.280769000     -1.108593000
H        6.142018000     -1.498211000     -0.870592000
H        6.006273000     -0.625033000     -2.421260000
C        5.311522000     -3.282247000     -2.855449000
H        4.659152000     -4.074200000     -3.281396000
H        5.913773000     -2.857774000     -3.685725000
H        6.020208000     -3.767768000     -2.151393000
C        3.546095000     -1.532371000     -3.224750000
H        2.945726000     -0.713912000     -2.780027000
H        4.141040000     -1.108630000     -4.060995000
H        2.845194000     -2.279986000     -3.651270000
C       -5.597709000     -1.554853000      0.117328000
C       -5.430222000     -2.277388000      1.471388000
H       -4.361607000     -2.348589000      1.761357000
H       -5.981329000     -1.773048000      2.292422000
H       -5.823424000     -3.312906000      1.400693000
C       -4.831557000     -2.336428000     -0.969013000
H       -4.944833000     -1.860957000     -1.966980000
H       -3.751405000     -2.398496000     -0.729032000
H       -5.223552000     -3.371834000     -1.047628000
C       -7.092206000     -1.492674000     -0.270464000
H       -7.237633000     -0.970742000     -1.240666000
H       -7.502951000     -2.518289000     -0.376413000
H       -7.708435000     -0.971570000      0.492284000
C        1.879593000      2.330821000     -0.033326000
C        1.987970000      3.711892000      0.279376000
C        3.038819000      1.529251000      0.160764000
C        3.172885000      4.274361000      0.777842000
H        1.111130000      4.363995000      0.131243000
C        4.224423000      2.075430000      0.652432000
H        2.990486000      0.462566000     -0.100586000
C        4.307359000      3.453772000      0.973095000
H        3.203250000      5.348502000      1.009595000
H        5.120227000      1.452047000      0.798828000
C        5.653255000      5.266286000      1.777371000
H        5.495595000      5.919628000      0.890273000
H        4.949228000      5.574985000      2.582128000
H        6.691108000      5.392640000      2.138330000
O        5.508229000      3.888425000      1.449483000
H        0.476044000     -2.818127000     -2.523104000
C       -1.855550000      2.146628000     -2.555453000
C       -3.138403000      2.461969000     -2.038851000
C       -1.127292000      3.180984000     -3.199907000
C       -3.678721000      3.748670000     -2.182526000
H       -3.708387000      1.687318000     -1.505481000
C       -1.666581000      4.469101000     -3.342435000
H       -0.125521000      2.959271000     -3.602938000
C       -2.946864000      4.758839000     -2.835905000
H       -4.679364000      3.968500000     -1.777315000
H       -1.084020000      5.251888000     -3.853708000
H       -3.371945000      5.769054000     -2.945599000

H C N O Cl 0
def2TZVP
****
Ni 0
LANL2DZ
****

Ni 0
LANL2DZ

Eps=4.5

